(declare-fun bvlambda_25_ () (_ BitVec 1))
(declare-fun a158 () (Array (_ BitVec 1) (_ BitVec 13)))
(assert
(let (($e22 (_ bv2 2)))
(let (($e24 (_ bv3586 15)))
(let (($e40 (_ bv3586 13)))
(let (($e78 (_ bv7346 13)))
(let (($e267         $e22              ))
(let (($e603 (store a158 true        $e40)))
(let (($e605 (select $e603 (bvnot bvlambda_25_))))
                  (=        $e78  $e605)
                                                                                                                                                                                                                                                                                                                                                                                                                                                                                                                                                                                                                                                                                                                                                                                                                                                                                                                                                                                                                                                                                                                                                                                                                                                                                                                                                                                                                                                                                                                                                                                                                                                                                                                                                                                                                                                                                                                                                                                                                          ) )                                                                                                                                                                                                                                                                                                                                               )                                                                                                                                                     )                                     )               ) )                     )
